50
100
100
97
95
95
95
95
94
93
93
91
90
89
87
83
82
79
79
78
77
77
74
71
69
68
68
65
65
64
61
58
55
55
54
53
53
51
51
49
46
44
42
41
39
38
37
37
37
35
33
31
